
Log for '/var/folders/wb/6pm8s60x797b47qg789x82sc0000gn/T/4a499ac2dad749cc83ae6a9b6c735d93-pulp.lp' Clone_1 (V12.10.0.0) Wed Sep 30 16:54:45 2020


Log for '/var/folders/wb/6pm8s60x797b47qg789x82sc0000gn/T/4a499ac2dad749cc83ae6a9b6c735d93-pulp.lp' Clone_1 (V12.10.0.0) Wed Sep 30 16:54:48 2020

Tried aggregator 1 time.
LP Presolve eliminated 7596 rows and 3198 columns.
All rows and columns eliminated.
Presolve time = 0.00 sec. (2.77 ticks)

Total time on 1 threads = 0.00 sec. (100.73 ticks)

Dual simplex solved model.


Log for '/var/folders/wb/6pm8s60x797b47qg789x82sc0000gn/T/5e13224f471148e7a29a1ad9a666bac5-pulp.lp' Clone_1 (V12.10.0.0) Wed Sep 30 16:54:54 2020


Log for '/var/folders/wb/6pm8s60x797b47qg789x82sc0000gn/T/31d026583afe48aebc57ba2f3522b9ea-pulp.lp' Clone_1 (V12.10.0.0) Wed Sep 30 17:27:37 2020


Log for '/var/folders/wb/6pm8s60x797b47qg789x82sc0000gn/T/31d026583afe48aebc57ba2f3522b9ea-pulp.lp' Clone_1 (V12.10.0.0) Wed Sep 30 17:29:35 2020

Tried aggregator 1 time.
LP Presolve eliminated 7596 rows and 3198 columns.
All rows and columns eliminated.
Presolve time = 0.00 sec. (2.77 ticks)

Total time on 1 threads = 0.00 sec. (100.73 ticks)

Dual simplex solved model.


Log for '/var/folders/wb/6pm8s60x797b47qg789x82sc0000gn/T/4a395af3d3b2447abc3976230cd58675-pulp.lp' Clone_1 (V12.10.0.0) Wed Sep 30 17:29:37 2020


Log for '/var/folders/wb/6pm8s60x797b47qg789x82sc0000gn/T/4a395af3d3b2447abc3976230cd58675-pulp.lp' Clone_1 (V12.10.0.0) Wed Sep 30 17:31:35 2020

Tried aggregator 1 time.
LP Presolve eliminated 7596 rows and 3198 columns.
All rows and columns eliminated.
Presolve time = 0.00 sec. (2.77 ticks)

Total time on 1 threads = 0.00 sec. (100.73 ticks)

Dual simplex solved model.


Log for '/var/folders/wb/6pm8s60x797b47qg789x82sc0000gn/T/ca02192cb112443781e6cc8e9e70c916-pulp.lp' Clone_1 (V12.10.0.0) Wed Sep 30 17:31:37 2020


Log for '/var/folders/wb/6pm8s60x797b47qg789x82sc0000gn/T/ca02192cb112443781e6cc8e9e70c916-pulp.lp' Clone_1 (V12.10.0.0) Wed Sep 30 17:33:36 2020

Tried aggregator 1 time.
LP Presolve eliminated 5862 rows and 8244 columns.
All rows and columns eliminated.
Presolve time = 0.00 sec. (3.19 ticks)

Total time on 1 threads = 0.01 sec. (101.08 ticks)

Dual simplex solved model.


Log for '/var/folders/wb/6pm8s60x797b47qg789x82sc0000gn/T/519b390de1dd4098b1ed7d69b197c7d2-pulp.lp' Clone_1 (V12.10.0.0) Wed Sep 30 17:34:40 2020

Advanced basis not built.

Log for '/var/folders/wb/6pm8s60x797b47qg789x82sc0000gn/T/519b390de1dd4098b1ed7d69b197c7d2-pulp.lp' Clone_1 (V12.10.0.0) Wed Sep 30 17:35:37 2020

Tried aggregator 1 time.
LP Presolve eliminated 25908 rows and 10326 columns.
All rows and columns eliminated.
Presolve time = 0.01 sec. (9.46 ticks)

Total time on 1 threads = 0.02 sec. (113.70 ticks)

Dual simplex solved model.


Log for '/var/folders/wb/6pm8s60x797b47qg789x82sc0000gn/T/0944262e51ed4b3fb44921822805ca89-pulp.lp' Clone_1 (V12.10.0.0) Wed Sep 30 17:35:46 2020


Log for '/var/folders/wb/6pm8s60x797b47qg789x82sc0000gn/T/0944262e51ed4b3fb44921822805ca89-pulp.lp' Clone_1 (V12.10.0.0) Wed Sep 30 17:37:39 2020

Tried aggregator 1 time.
LP Presolve eliminated 25908 rows and 10326 columns.
All rows and columns eliminated.
Presolve time = 0.01 sec. (9.48 ticks)

Total time on 1 threads = 0.02 sec. (113.72 ticks)

Dual simplex solved model.


Log for '/var/folders/wb/6pm8s60x797b47qg789x82sc0000gn/T/94009677d855495f8c0895d7569f3961-pulp.lp' Clone_1 (V12.10.0.0) Wed Sep 30 18:18:33 2020

Advanced basis not built.

Log for '/var/folders/wb/6pm8s60x797b47qg789x82sc0000gn/T/94009677d855495f8c0895d7569f3961-pulp.lp' Clone_1 (V12.10.0.0) Wed Sep 30 18:19:33 2020

Tried aggregator 1 time.
LP Presolve eliminated 26004 rows and 10326 columns.
All rows and columns eliminated.
Presolve time = 0.01 sec. (9.58 ticks)

Total time on 1 threads = 0.02 sec. (113.88 ticks)

Dual simplex solved model.


Log for '/var/folders/wb/6pm8s60x797b47qg789x82sc0000gn/T/9011895d490549b9abc48b5c9483b84c-pulp.lp' Clone_1 (V12.10.0.0) Wed Sep 30 18:19:49 2020


Log for '/var/folders/wb/6pm8s60x797b47qg789x82sc0000gn/T/9011895d490549b9abc48b5c9483b84c-pulp.lp' Clone_1 (V12.10.0.0) Wed Sep 30 18:24:05 2020

Tried aggregator 1 time.
LP Presolve eliminated 26004 rows and 10326 columns.
All rows and columns eliminated.
Presolve time = 0.01 sec. (9.60 ticks)

Total time on 1 threads = 0.02 sec. (113.90 ticks)

Dual simplex solved model.


Log for '/var/folders/wb/6pm8s60x797b47qg789x82sc0000gn/T/4195456fa4b64b19a0e4a6491d116213-pulp.lp' Clone_1 (V12.10.0.0) Wed Sep 30 18:24:20 2020


Log for '/var/folders/wb/6pm8s60x797b47qg789x82sc0000gn/T/4195456fa4b64b19a0e4a6491d116213-pulp.lp' Clone_1 (V12.10.0.0) Wed Sep 30 18:25:09 2020

Tried aggregator 1 time.
LP Presolve eliminated 26004 rows and 10326 columns.
All rows and columns eliminated.
Presolve time = 0.01 sec. (9.60 ticks)

Total time on 1 threads = 0.02 sec. (113.90 ticks)

Dual simplex solved model.


Log for '/var/folders/wb/6pm8s60x797b47qg789x82sc0000gn/T/441ba4cacb9f4c99b91e96ea3c4a0fca-pulp.lp' Clone_1 (V12.10.0.0) Wed Sep 30 18:25:46 2020


Log for '/var/folders/wb/6pm8s60x797b47qg789x82sc0000gn/T/441ba4cacb9f4c99b91e96ea3c4a0fca-pulp.lp' Clone_1 (V12.10.0.0) Wed Sep 30 18:27:34 2020

Tried aggregator 1 time.
LP Presolve eliminated 26004 rows and 10326 columns.
All rows and columns eliminated.
Presolve time = 0.01 sec. (9.60 ticks)

Total time on 1 threads = 0.02 sec. (113.90 ticks)

Dual simplex solved model.


Log for '/var/folders/wb/6pm8s60x797b47qg789x82sc0000gn/T/25ff556714b8436a9da5a68fe3f4e528-pulp.lp' Clone_1 (V12.10.0.0) Wed Sep 30 21:06:34 2020


Log for '/var/folders/wb/6pm8s60x797b47qg789x82sc0000gn/T/25ff556714b8436a9da5a68fe3f4e528-pulp.lp' Clone_1 (V12.10.0.0) Wed Sep 30 23:17:12 2020

Tried aggregator 1 time.
LP Presolve eliminated 7626 rows and 3198 columns.
All rows and columns eliminated.
Presolve time = 0.00 sec. (2.80 ticks)
Parallel mode: deterministic, using up to 4 threads for concurrent optimization:
 * Starting dual Simplex on 1 thread...
 * Starting primal Simplex on 1 thread...

Log for '/var/folders/wb/6pm8s60x797b47qg789x82sc0000gn/T/25ff556714b8436a9da5a68fe3f4e528-pulp.lp' Clone_1 (V12.10.0.0) Wed Sep 30 23:17:12 2020

Using steepest-edge.

Total time on 4 threads = 0.01 sec. (197.68 ticks)

Dual simplex solved model.


Log for '/var/folders/wb/6pm8s60x797b47qg789x82sc0000gn/T/e5821d6e3ea042498f0caafb608930c9-pulp.lp' Clone_1 (V12.10.0.0) Wed Sep 30 23:18:30 2020


Log for '/var/folders/wb/6pm8s60x797b47qg789x82sc0000gn/T/e5821d6e3ea042498f0caafb608930c9-pulp.lp' Clone_1 (V12.10.0.0) Thu Oct  1 00:48:30 2020

Tried aggregator 1 time.
LP Presolve eliminated 7626 rows and 3198 columns.
All rows and columns eliminated.
Presolve time = 0.00 sec. (2.80 ticks)
Parallel mode: deterministic, using up to 4 threads for concurrent optimization:
 * Starting dual Simplex on 1 thread...
 * Starting primal Simplex on 1 thread...

Log for '/var/folders/wb/6pm8s60x797b47qg789x82sc0000gn/T/e5821d6e3ea042498f0caafb608930c9-pulp.lp' Clone_1 (V12.10.0.0) Thu Oct  1 00:48:30 2020

Using steepest-edge.

Total time on 4 threads = 0.04 sec. (197.68 ticks)

Dual simplex solved model.


Log for '/var/folders/wb/6pm8s60x797b47qg789x82sc0000gn/T/3a048b4dc2f741f787f26903c5736323-pulp.lp' Clone_1 (V12.10.0.0) Thu Oct  1 00:48:40 2020

Advanced basis not built.

Log for '/var/folders/wb/6pm8s60x797b47qg789x82sc0000gn/T/3a048b4dc2f741f787f26903c5736323-pulp.lp' Clone_1 (V12.10.0.0) Thu Oct  1 02:18:38 2020

Tried aggregator 1 time.
LP Presolve eliminated 7626 rows and 3198 columns.
All rows and columns eliminated.
Presolve time = 0.00 sec. (2.81 ticks)

Log for '/var/folders/wb/6pm8s60x797b47qg789x82sc0000gn/T/3a048b4dc2f741f787f26903c5736323-pulp.lp' Clone_1 (V12.10.0.0) Thu Oct  1 02:18:38 2020

Using steepest-edge.
Parallel mode: deterministic, using up to 4 threads for concurrent optimization:
 * Starting dual Simplex on 1 thread...
 * Starting primal Simplex on 1 thread...

Total time on 4 threads = 0.01 sec. (197.68 ticks)

Dual simplex solved model.


Log for '/var/folders/wb/6pm8s60x797b47qg789x82sc0000gn/T/4e86143ff2124fdfa70a62ef3bb895c7-pulp.lp' Clone_1 (V12.10.0.0) Thu Oct  1 02:18:41 2020


Log for '/var/folders/wb/6pm8s60x797b47qg789x82sc0000gn/T/4e86143ff2124fdfa70a62ef3bb895c7-pulp.lp' Clone_1 (V12.10.0.0) Thu Oct  1 02:21:13 2020

Tried aggregator 1 time.
LP Presolve eliminated 5862 rows and 8244 columns.
All rows and columns eliminated.
Presolve time = 0.00 sec. (3.19 ticks)
Parallel mode: deterministic, using up to 4 threads for concurrent optimization:
 * Starting dual Simplex on 1 thread...
 * Starting primal Simplex on 1 thread...

Log for '/var/folders/wb/6pm8s60x797b47qg789x82sc0000gn/T/4e86143ff2124fdfa70a62ef3bb895c7-pulp.lp' Clone_1 (V12.10.0.0) Thu Oct  1 02:21:13 2020

Using steepest-edge.

Total time on 4 threads = 0.01 sec. (197.95 ticks)

Dual simplex solved model.


Log for '/var/folders/wb/6pm8s60x797b47qg789x82sc0000gn/T/fc70f93a7cea43beb212d34f83c80fc6-pulp.lp' Clone_1 (V12.10.0.0) Thu Oct  1 02:22:15 2020


Log for '/var/folders/wb/6pm8s60x797b47qg789x82sc0000gn/T/fc70f93a7cea43beb212d34f83c80fc6-pulp.lp' Clone_1 (V12.10.0.0) Thu Oct  1 03:51:16 2020

Tried aggregator 1 time.
LP Presolve eliminated 26004 rows and 10326 columns.
All rows and columns eliminated.
Presolve time = 0.01 sec. (9.58 ticks)
Parallel mode: deterministic, using up to 4 threads for concurrent optimization:
 * Starting dual Simplex on 1 thread...
 * Starting primal Simplex on 1 thread...

Log for '/var/folders/wb/6pm8s60x797b47qg789x82sc0000gn/T/fc70f93a7cea43beb212d34f83c80fc6-pulp.lp' Clone_1 (V12.10.0.0) Thu Oct  1 03:51:16 2020

Using steepest-edge.

Total time on 4 threads = 0.03 sec. (214.48 ticks)

Dual simplex solved model.


Log for '/var/folders/wb/6pm8s60x797b47qg789x82sc0000gn/T/fa8bf3b3c1ec43d1bba725b6c0b7cb4f-pulp.lp' Clone_1 (V12.10.0.0) Thu Oct  1 03:52:38 2020

Advanced basis not built.

Log for '/var/folders/wb/6pm8s60x797b47qg789x82sc0000gn/T/fa8bf3b3c1ec43d1bba725b6c0b7cb4f-pulp.lp' Clone_1 (V12.10.0.0) Thu Oct  1 05:21:21 2020

Tried aggregator 1 time.
LP Presolve eliminated 26004 rows and 10326 columns.
All rows and columns eliminated.
Presolve time = 0.01 sec. (9.60 ticks)

Log for '/var/folders/wb/6pm8s60x797b47qg789x82sc0000gn/T/fa8bf3b3c1ec43d1bba725b6c0b7cb4f-pulp.lp' Clone_1 (V12.10.0.0) Thu Oct  1 05:21:21 2020

Using steepest-edge.
Parallel mode: deterministic, using up to 4 threads for concurrent optimization:
 * Starting dual Simplex on 1 thread...
 * Starting primal Simplex on 1 thread...

Total time on 4 threads = 0.03 sec. (214.50 ticks)

Dual simplex solved model.


Log for '/var/folders/wb/6pm8s60x797b47qg789x82sc0000gn/T/cae2bd3322ee477eacb8d39a581a7b94-pulp.lp' Clone_1 (V12.10.0.0) Thu Oct  1 08:17:35 2020

Advanced basis not built.

Log for '/var/folders/wb/6pm8s60x797b47qg789x82sc0000gn/T/cae2bd3322ee477eacb8d39a581a7b94-pulp.lp' Clone_1 (V12.10.0.0) Thu Oct  1 08:47:17 2020

Tried aggregator 1 time.
LP Presolve eliminated 26010 rows and 10326 columns.
All rows and columns eliminated.
Presolve time = 0.01 sec. (9.68 ticks)
Parallel mode: deterministic, using up to 4 threads for concurrent optimization:
 * Starting dual Simplex on 1 thread...
 * Starting primal Simplex on 1 thread...

Log for '/var/folders/wb/6pm8s60x797b47qg789x82sc0000gn/T/cae2bd3322ee477eacb8d39a581a7b94-pulp.lp' Clone_1 (V12.10.0.0) Thu Oct  1 08:47:17 2020

Using steepest-edge.

Total time on 4 threads = 0.03 sec. (214.63 ticks)

Dual simplex solved model.


Log for '/var/folders/wb/6pm8s60x797b47qg789x82sc0000gn/T/19724fcea1704ae6ba2c79f93144b544-pulp.lp' Clone_1 (V12.10.0.0) Thu Oct  1 09:07:09 2020


Log for '/var/folders/wb/6pm8s60x797b47qg789x82sc0000gn/T/19724fcea1704ae6ba2c79f93144b544-pulp.lp' Clone_1 (V12.10.0.0) Thu Oct  1 09:28:17 2020

Tried aggregator 1 time.
LP Presolve eliminated 26100 rows and 10326 columns.
All rows and columns eliminated.
Presolve time = 0.01 sec. (9.87 ticks)

Log for '/var/folders/wb/6pm8s60x797b47qg789x82sc0000gn/T/19724fcea1704ae6ba2c79f93144b544-pulp.lp' Clone_1 (V12.10.0.0) Thu Oct  1 09:28:17 2020

Using steepest-edge.
Parallel mode: deterministic, using up to 5 threads for concurrent optimization:
 * Starting dual Simplex on 1 thread...
 * Starting primal Simplex on 1 thread...

Total time on 5 threads = 0.03 sec. (214.92 ticks)

Dual simplex solved model.


Log for '/var/folders/wb/6pm8s60x797b47qg789x82sc0000gn/T/59d14e63093a49b899ffd90344d6a225-pulp.lp' Clone_1 (V12.10.0.0) Thu Oct  1 09:39:25 2020


Log for '/var/folders/wb/6pm8s60x797b47qg789x82sc0000gn/T/59d14e63093a49b899ffd90344d6a225-pulp.lp' Clone_1 (V12.10.0.0) Thu Oct  1 09:48:52 2020

Tried aggregator 1 time.
LP Presolve eliminated 26120 rows and 10326 columns.
All rows and columns eliminated.
Presolve time = 0.01 sec. (10.56 ticks)

Log for '/var/folders/wb/6pm8s60x797b47qg789x82sc0000gn/T/59d14e63093a49b899ffd90344d6a225-pulp.lp' Clone_1 (V12.10.0.0) Thu Oct  1 09:48:52 2020

Using steepest-edge.
Parallel mode: deterministic, using up to 5 threads for concurrent optimization:
 * Starting dual Simplex on 1 thread...
 * Starting primal Simplex on 1 thread...

Total time on 5 threads = 0.03 sec. (215.89 ticks)

Dual simplex solved model.


Log for '/var/folders/wb/6pm8s60x797b47qg789x82sc0000gn/T/45460592c64546ee93ba35177385f3b9-pulp.lp' Clone_1 (V12.10.0.0) Thu Oct  1 10:11:02 2020

Advanced basis not built.

Log for '/var/folders/wb/6pm8s60x797b47qg789x82sc0000gn/T/45460592c64546ee93ba35177385f3b9-pulp.lp' Clone_1 (V12.10.0.0) Thu Oct  1 10:12:58 2020

Tried aggregator 1 time.
LP Presolve eliminated 26120 rows and 10326 columns.
All rows and columns eliminated.
Presolve time = 0.01 sec. (10.58 ticks)

Total time on 1 threads = 0.02 sec. (115.24 ticks)

Dual simplex solved model.

